NAME: test1998
TYPE: TSP
DIMENSION: 11
EDGE_WEIGHT_TYPE: EUC_2D
NODE_COORD_SECTION
1 35.142573995047535 36.33268762933341
2 33.51476843637391 69.4807834162962
3 30.743383816900515 14.338987898611022
4 53.95964180636689 49.55591858303862
5 71.62161418191874 68.29888941443488
6 14.453543510377775 55.31248217946263
7 67.00390330873287 48.120431975092174
8 42.23014602084233 42.649263905806066
9 66.09176020477967 2.2407009800717304
10 27.252385539104328 79.20197207984754
11 85.01770132969448 59.99522351600768
EOF
